32	3
5	7	9	
0	0	0	0	30	2	3	4	5	6	7	8	9	10	11	12	13	14	15	16	17	18	19	20	21	22	23	24	25	26	27	28	29	30	31	
2	4	1	1	1	32	
4	1	2	1	1	32	
2	4	1	1	1	32	
5	5	1	3	1	25	
2	1	2	3	1	22	
3	1	1	3	1	32	
339	4	2	1	1	23	
230	2	2	3	1	25	
333	3	2	2	1	13	
156	1	1	2	1	28	
150	2	1	3	1	32	
4	2	1	1	1	28	
156	3	2	1	1	23	
106	2	1	1	1	28	
4	2	1	1	2	23	25	
2	2	1	3	1	30	
111	2	1	1	1	32	
359	3	2	3	1	30	
277	1	1	1	1	25	
169	2	2	2	1	24	
1	4	1	3	1	25	
250	4	1	3	1	32	
4	3	2	3	1	27	
2	2	2	3	1	32	
4	2	2	1	1	32	
261	2	2	2	1	32	
159	5	1	1	1	32	
169	3	1	1	1	30	
3	1	1	3	1	32	
5	3	1	1	1	32	
0	0	0	0	0	